6	4
2	3	1	20	3	24	2	22	3	4	36	2	32	3	34
2	3	2	20	4	16	3	24	3	4	36	1	40	2	32
2	3	1	20	3	24	2	16	3	3	40	2	36	4	44
3	3	2	20	4	22	1	26	3	3	30	1	34	4	26	3	4	24	2	18	3	22
3	3	1	20	4	24	2	16	3	2	30	1	28	3	28	3	4	24	3	22	1	30
3	3	1	20	3	22	2	24	3	2	30	4	26	3	28	3	3	24	2	26	4	22
0	3	4	5	6
6	0	3	4	5
5	3	0	3	4
4	4	3	0	3
3	5	4	3	0
